(declare-var N Int)
(declare-var len Int)
(declare-var len1 Int)
(declare-var i Int)
(declare-var i1 Int)
(declare-var min Int)
(declare-var min1 Int)
(declare-var max Int)
(declare-var max1 Int)
(declare-var containsk Int)
(declare-var containsk1 Int)
(declare-var k Int)
(declare-var v Int)
(declare-var ret1 Int)
(declare-rel insert (Int Int Int Int Int Int Int Int Int Int))
(declare-rel inv1 (Int Int Int Int Int Int))
(declare-rel inv2 (Int Int Int Int Int Int))
(declare-rel fail ())
(define-fun MAX () Int 128)
(define-fun MIN () Int -129)
(define-fun is_valid ((x Int)) Bool (or (= x 1) (= x 0)))

(rule (=> (and (> N 0) (= len 0) (= i 0) (= min MAX) (= max MIN) (= containsk 0)) (inv1 i N len min max containsk)))
(rule (=> (and (inv1 i N len min max containsk) (is_valid containsk) (< i N) (= k i) (= v i) (insert k v len min max containsk len1 min1 max1 containsk1) (= i1 (+ i 1))) (inv1 i1 N len1 min1 max1 containsk1)))
(rule (=> (and (inv1 i N len min max containsk) (is_valid containsk) (not (< i N)) (= i1 0)) (inv2 i1 N len min max containsk)))
(rule (=> (and (inv2 i N len min max containsk) (is_valid containsk) (< i N) (= k i) (= v i) (insert k v len min max containsk len1 min1 max1 containsk1) (= i1 (+ i 1))) (inv2 i1 N len1 min1 max1 containsk1)))
(rule (=> (and (inv2 i N len min max containsk) (is_valid containsk) (not (= len N))) fail))

(query fail :print-certificate true)